InboundTrucks  = 12;
OutboundTrucks = 8;
ReleaseTime    = [1,5,4,2,1,4,5,5,4,1,3,2];
UnloadTime     = [14,11,14,14,5,13,13,14,13,7,11,12];
LoadTime       = [8,13,7,6,5,7,14,14];
TransferTime   = [| 5,6,8,3,7,6,6,3 | 5,6,5,7,5,7,2,3 | 6,2,8,4,5,7,3,6 | 5,7,6,5,8,5,3,8 | 3,4,3,2,6,3,7,4 | 5,3,6,6,5,7,8,4 | 8,4,7,7,5,7,6,5 | 8,7,8,6,7,3,5,3 | 7,3,6,6,6,6,3,6 | 8,4,6,2,5,2,5,8 | 3,4,2,8,8,6,5,7 | 4,5,7,3,3,4,5,3 |];
